69 81
16 17
1 45
26 2 45
61 2 46
25 3 49
24 48 4
48 67 4
23 5
23 5
38 59 6
7 39
58 8 36
56 9 36
9 18
56 10 33
41 10
53 11 33
19 11
53 12 32
12 42
13 29 32
13 20
29 14 51
14 22
51 15 28
44 27 15 28
16 81
62 61
76 63 62
80 71
73 72
76 75
76 77
21 20
30 22
24 23
24 66 25
25 26
26 31 64
71 27 31
71 28
29 30
31 30
78 35 31
34 32 75
34 33
34 35
37 70 35
36 37
37 38 68
38 39
39 40
43 54 42
43 72
44 74
52 45
47 46
49 48
49 65 50 61
52 50
52 51 75
52 55 79
53 54
72 55 54
55 57
56 57
58 69 57
58 59
60 59
